c ren 1 -> 1
c ren 2 -> 2
c ren 3 -> 3
c ren 4 -> 4
c ren 5 -> 5
c ren 6 -> 6
c ren 7 -> 7
c ren 8 -> 8
c ren 9 -> 9
c ren 10 -> 10
c ren 11 -> 11
c ren 12 -> 12
c ren 13 -> 13
c ren 14 -> 14
c ren 15 -> 15
c ren 16 -> 16
c ren 17 -> 17
c ren 18 -> 18
c ren 19 -> 19
c ren 20 -> 20
c ren 21 -> 21
c ren 22 -> 22
c ren 23 -> 23
c ren 24 -> 24
c ren 25 -> 25
c ren 26 -> 26
c ren 27 -> 27
c ren 28 -> 28
c ren 29 -> 29
c ren 30 -> 30
c ren 31 -> 31
c ren 32 -> 32
c ren 33 -> 33
c ren 37 -> 34
c ren 43 -> 35
c ren 49 -> 36
c ren 52 -> 37
c ren 55 -> 38
c ren 59 -> 39
c ren 76 -> 40
c ren 78 -> 41
c ren 81 -> 42
c ren 87 -> 43
c ren 92 -> 44
p cnf 44 117
a 1 2 3 4 5 6 7 8 9 10 11 12 13 14 15 16 17 18 19 20 21 22 23 24 25 26 27 0
d 28 17 18 0
d 29 20 21 0
d 30 19 22 0
d 31 15 25 0
d 32 23 24 0
d 33 26 27 0
e 34 35 36 37 38 39 40 41 42 43 44 0
-7 -17 -34 0
7 8 -17 34 0
-8 21 37 0
7 8 17 -34 0
-7 21 37 0
-7 -21 -37 0
7 8 -21 37 0
-1 -18 -35 0
1 2 -9 -18 35 0
3 4 5 6 9 -28 40 -41 -42 -43 -44 0
-2 -18 -35 0
1 2 -9 18 -35 0
9 -18 -35 0
-7 17 34 0
-2 3 4 5 6 -28 40 -41 -42 -43 -44 0
-1 3 4 5 6 -28 40 -41 -42 -43 -44 0
-1 18 35 0
35 40 0
-11 22 23 -34 -35 -36 -37 -38 39 -40 0
-5 -20 -36 0
5 6 -20 36 0
5 6 20 -36 0
-5 -30 40 -41 -42 -43 -44 0
3 4 5 6 7 8 9 10 11 -12 32 -39 40 -41 -42 -43 -44 0
36 40 0
9 10 11 -12 22 -23 -34 -35 -36 -37 -38 -40 0
-6 -32 40 -41 -42 -43 -44 0
7 8 21 -37 0
37 40 0
-9 22 23 -34 -35 -36 -37 -38 39 -40 0
3 4 -6 9 10 11 12 -29 -33 -39 40 -41 -42 -43 -44 0
-19 -29 38 0
19 29 38 0
-19 29 -38 0
19 -29 -38 0
38 40 0
-10 22 23 -34 -35 -36 -37 -38 39 -40 0
3 4 5 6 -8 -28 40 -41 -42 -43 -44 0
3 4 -6 9 10 11 12 13 -14 -29 -39 40 -41 -42 -43 -44 0
3 4 -9 -10 -22 23 -34 -35 -36 -37 -38 -39 -40 0
-1 -39 0
-2 -39 0
1 2 39 0
-32 39 40 -41 -42 -43 -44 0
-4 -32 40 -41 -42 -43 -44 0
3 4 -24 -29 -39 41 0
-3 -30 40 -41 -42 -43 -44 0
-3 -11 22 23 -34 -35 -36 -37 -38 -40 0
-4 -11 22 23 -34 -35 -36 -37 -38 -40 0
9 12 22 23 -34 -35 -36 -37 -38 -40 0
-6 -30 40 -41 -42 -43 -44 0
-5 20 36 0
3 4 -8 9 10 11 12 13 -14 -29 -39 40 -41 -42 -43 -44 0
-10 -32 40 -41 -42 -43 -44 0
-11 -32 40 -41 -42 -43 -44 0
12 -32 40 -41 -42 -43 -44 0
-3 -9 22 23 -34 -35 -36 -37 -38 -40 0
3 4 5 6 7 8 9 -10 30 -39 40 -41 -42 -43 -44 0
-3 24 41 0
3 4 5 6 7 8 9 10 11 12 13 14 15 -16 33 -39 40 -41 -42 -43 -44 0
3 4 -7 9 10 11 12 13 -14 -29 -39 40 -41 -42 -43 -44 0
-4 12 22 23 -34 -35 -36 -37 -38 -40 0
3 4 -7 9 10 11 12 -29 -33 -39 40 -41 -42 -43 -44 0
-3 12 22 23 -34 -35 -36 -37 -38 -40 0
34 40 0
-25 -39 42 0
25 39 42 0
10 12 22 23 -34 -35 -36 -37 -38 -40 0
13 14 -26 43 0
9 -10 22 23 -34 -35 -36 -37 -38 -40 0
10 -11 22 23 -34 -35 -36 -37 -38 -40 0
-14 26 43 0
15 -16 -27 44 0
16 27 44 0
-15 27 44 0
24 39 41 0
-4 -10 22 23 -34 -35 -36 -37 -38 -40 0
-8 -21 -37 0
12 22 23 -34 -35 -36 -37 -38 39 -40 0
-3 -10 22 23 -34 -35 -36 -37 -38 -40 0
-4 -9 22 23 -34 -35 -36 -37 -38 -40 0
9 -11 22 23 -34 -35 -36 -37 -38 -40 0
-2 3 4 5 6 7 8 9 10 11 12 13 14 -31 40 -41 -42 -43 -44 0
-3 -32 40 -41 -42 -43 -44 0
-9 -30 40 -41 -42 -43 -44 0
3 4 5 6 7 8 9 10 11 12 13 15 -16 29 -39 40 -41 -42 -43 -44 0
-4 24 41 0
3 4 9 10 11 12 -15 -29 -33 -39 40 -41 -42 -43 -44 0
3 4 9 10 11 12 16 -29 -33 -39 40 -41 -42 -43 -44 0
-8 -32 40 -41 -42 -43 -44 0
-8 -30 40 -41 -42 -43 -44 0
1 2 3 4 5 6 7 8 9 10 11 12 13 14 -15 31 40 -41 -42 -43 -44 0
3 4 5 6 7 8 9 10 11 12 13 -14 29 -39 40 -41 -42 -43 -44 0
3 4 -8 9 10 11 12 -29 -33 -39 40 -41 -42 -43 -44 0
1 2 3 4 5 6 7 8 -9 28 40 -41 -42 -43 -44 0
-5 -32 40 -41 -42 -43 -44 0
-9 -32 40 -41 -42 -43 -44 0
-4 -30 40 -41 -42 -43 -44 0
-7 -32 40 -41 -42 -43 -44 0
9 18 35 0
-6 -20 -36 0
-13 26 43 0
3 4 -5 9 10 11 12 -29 -33 -39 40 -41 -42 -43 -44 0
-1 3 4 5 6 7 8 9 10 11 12 13 14 -31 40 -41 -42 -43 -44 0
3 4 9 10 11 12 -14 -29 -33 -39 40 -41 -42 -43 -44 0
-30 39 40 -41 -42 -43 -44 0
3 4 5 6 -7 -28 40 -41 -42 -43 -44 0
-6 20 36 0
-8 17 34 0
10 -30 40 -41 -42 -43 -44 0
-2 18 35 0
3 4 9 10 11 12 -13 -29 -33 -39 40 -41 -42 -43 -44 0
-7 -30 40 -41 -42 -43 -44 0
3 4 -5 9 10 11 12 13 -14 -29 -39 40 -41 -42 -43 -44 0
-9 10 22 23 -34 -35 -36 -37 -38 -40 0
24 29 41 0
-8 -17 -34 0
